c created by edge2cnf
p cnf 500 3100
-1 -2 0
-1 -3 0
-1 -4 0
-1 -5 0
-2 -3 0
-2 -4 0
-2 -5 0
-3 -4 0
-3 -5 0
-4 -5 0
1 2 3 4 5 0
-6 -7 0
-6 -8 0
-6 -9 0
-6 -10 0
-7 -8 0
-7 -9 0
-7 -10 0
-8 -9 0
-8 -10 0
-9 -10 0
6 7 8 9 10 0
-11 -12 0
-11 -13 0
-11 -14 0
-11 -15 0
-12 -13 0
-12 -14 0
-12 -15 0
-13 -14 0
-13 -15 0
-14 -15 0
11 12 13 14 15 0
-16 -17 0
-16 -18 0
-16 -19 0
-16 -20 0
-17 -18 0
-17 -19 0
-17 -20 0
-18 -19 0
-18 -20 0
-19 -20 0
16 17 18 19 20 0
-21 -22 0
-21 -23 0
-21 -24 0
-21 -25 0
-22 -23 0
-22 -24 0
-22 -25 0
-23 -24 0
-23 -25 0
-24 -25 0
21 22 23 24 25 0
-26 -27 0
-26 -28 0
-26 -29 0
-26 -30 0
-27 -28 0
-27 -29 0
-27 -30 0
-28 -29 0
-28 -30 0
-29 -30 0
26 27 28 29 30 0
-31 -32 0
-31 -33 0
-31 -34 0
-31 -35 0
-32 -33 0
-32 -34 0
-32 -35 0
-33 -34 0
-33 -35 0
-34 -35 0
31 32 33 34 35 0
-36 -37 0
-36 -38 0
-36 -39 0
-36 -40 0
-37 -38 0
-37 -39 0
-37 -40 0
-38 -39 0
-38 -40 0
-39 -40 0
36 37 38 39 40 0
-41 -42 0
-41 -43 0
-41 -44 0
-41 -45 0
-42 -43 0
-42 -44 0
-42 -45 0
-43 -44 0
-43 -45 0
-44 -45 0
41 42 43 44 45 0
-46 -47 0
-46 -48 0
-46 -49 0
-46 -50 0
-47 -48 0
-47 -49 0
-47 -50 0
-48 -49 0
-48 -50 0
-49 -50 0
46 47 48 49 50 0
-51 -52 0
-51 -53 0
-51 -54 0
-51 -55 0
-52 -53 0
-52 -54 0
-52 -55 0
-53 -54 0
-53 -55 0
-54 -55 0
51 52 53 54 55 0
-56 -57 0
-56 -58 0
-56 -59 0
-56 -60 0
-57 -58 0
-57 -59 0
-57 -60 0
-58 -59 0
-58 -60 0
-59 -60 0
56 57 58 59 60 0
-61 -62 0
-61 -63 0
-61 -64 0
-61 -65 0
-62 -63 0
-62 -64 0
-62 -65 0
-63 -64 0
-63 -65 0
-64 -65 0
61 62 63 64 65 0
-66 -67 0
-66 -68 0
-66 -69 0
-66 -70 0
-67 -68 0
-67 -69 0
-67 -70 0
-68 -69 0
-68 -70 0
-69 -70 0
66 67 68 69 70 0
-71 -72 0
-71 -73 0
-71 -74 0
-71 -75 0
-72 -73 0
-72 -74 0
-72 -75 0
-73 -74 0
-73 -75 0
-74 -75 0
71 72 73 74 75 0
-76 -77 0
-76 -78 0
-76 -79 0
-76 -80 0
-77 -78 0
-77 -79 0
-77 -80 0
-78 -79 0
-78 -80 0
-79 -80 0
76 77 78 79 80 0
-81 -82 0
-81 -83 0
-81 -84 0
-81 -85 0
-82 -83 0
-82 -84 0
-82 -85 0
-83 -84 0
-83 -85 0
-84 -85 0
81 82 83 84 85 0
-86 -87 0
-86 -88 0
-86 -89 0
-86 -90 0
-87 -88 0
-87 -89 0
-87 -90 0
-88 -89 0
-88 -90 0
-89 -90 0
86 87 88 89 90 0
-91 -92 0
-91 -93 0
-91 -94 0
-91 -95 0
-92 -93 0
-92 -94 0
-92 -95 0
-93 -94 0
-93 -95 0
-94 -95 0
91 92 93 94 95 0
-96 -97 0
-96 -98 0
-96 -99 0
-96 -100 0
-97 -98 0
-97 -99 0
-97 -100 0
-98 -99 0
-98 -100 0
-99 -100 0
96 97 98 99 100 0
-101 -102 0
-101 -103 0
-101 -104 0
-101 -105 0
-102 -103 0
-102 -104 0
-102 -105 0
-103 -104 0
-103 -105 0
-104 -105 0
101 102 103 104 105 0
-106 -107 0
-106 -108 0
-106 -109 0
-106 -110 0
-107 -108 0
-107 -109 0
-107 -110 0
-108 -109 0
-108 -110 0
-109 -110 0
106 107 108 109 110 0
-111 -112 0
-111 -113 0
-111 -114 0
-111 -115 0
-112 -113 0
-112 -114 0
-112 -115 0
-113 -114 0
-113 -115 0
-114 -115 0
111 112 113 114 115 0
-116 -117 0
-116 -118 0
-116 -119 0
-116 -120 0
-117 -118 0
-117 -119 0
-117 -120 0
-118 -119 0
-118 -120 0
-119 -120 0
116 117 118 119 120 0
-121 -122 0
-121 -123 0
-121 -124 0
-121 -125 0
-122 -123 0
-122 -124 0
-122 -125 0
-123 -124 0
-123 -125 0
-124 -125 0
121 122 123 124 125 0
-126 -127 0
-126 -128 0
-126 -129 0
-126 -130 0
-127 -128 0
-127 -129 0
-127 -130 0
-128 -129 0
-128 -130 0
-129 -130 0
126 127 128 129 130 0
-131 -132 0
-131 -133 0
-131 -134 0
-131 -135 0
-132 -133 0
-132 -134 0
-132 -135 0
-133 -134 0
-133 -135 0
-134 -135 0
131 132 133 134 135 0
-136 -137 0
-136 -138 0
-136 -139 0
-136 -140 0
-137 -138 0
-137 -139 0
-137 -140 0
-138 -139 0
-138 -140 0
-139 -140 0
136 137 138 139 140 0
-141 -142 0
-141 -143 0
-141 -144 0
-141 -145 0
-142 -143 0
-142 -144 0
-142 -145 0
-143 -144 0
-143 -145 0
-144 -145 0
141 142 143 144 145 0
-146 -147 0
-146 -148 0
-146 -149 0
-146 -150 0
-147 -148 0
-147 -149 0
-147 -150 0
-148 -149 0
-148 -150 0
-149 -150 0
146 147 148 149 150 0
-151 -152 0
-151 -153 0
-151 -154 0
-151 -155 0
-152 -153 0
-152 -154 0
-152 -155 0
-153 -154 0
-153 -155 0
-154 -155 0
151 152 153 154 155 0
-156 -157 0
-156 -158 0
-156 -159 0
-156 -160 0
-157 -158 0
-157 -159 0
-157 -160 0
-158 -159 0
-158 -160 0
-159 -160 0
156 157 158 159 160 0
-161 -162 0
-161 -163 0
-161 -164 0
-161 -165 0
-162 -163 0
-162 -164 0
-162 -165 0
-163 -164 0
-163 -165 0
-164 -165 0
161 162 163 164 165 0
-166 -167 0
-166 -168 0
-166 -169 0
-166 -170 0
-167 -168 0
-167 -169 0
-167 -170 0
-168 -169 0
-168 -170 0
-169 -170 0
166 167 168 169 170 0
-171 -172 0
-171 -173 0
-171 -174 0
-171 -175 0
-172 -173 0
-172 -174 0
-172 -175 0
-173 -174 0
-173 -175 0
-174 -175 0
171 172 173 174 175 0
-176 -177 0
-176 -178 0
-176 -179 0
-176 -180 0
-177 -178 0
-177 -179 0
-177 -180 0
-178 -179 0
-178 -180 0
-179 -180 0
176 177 178 179 180 0
-181 -182 0
-181 -183 0
-181 -184 0
-181 -185 0
-182 -183 0
-182 -184 0
-182 -185 0
-183 -184 0
-183 -185 0
-184 -185 0
181 182 183 184 185 0
-186 -187 0
-186 -188 0
-186 -189 0
-186 -190 0
-187 -188 0
-187 -189 0
-187 -190 0
-188 -189 0
-188 -190 0
-189 -190 0
186 187 188 189 190 0
-191 -192 0
-191 -193 0
-191 -194 0
-191 -195 0
-192 -193 0
-192 -194 0
-192 -195 0
-193 -194 0
-193 -195 0
-194 -195 0
191 192 193 194 195 0
-196 -197 0
-196 -198 0
-196 -199 0
-196 -200 0
-197 -198 0
-197 -199 0
-197 -200 0
-198 -199 0
-198 -200 0
-199 -200 0
196 197 198 199 200 0
-201 -202 0
-201 -203 0
-201 -204 0
-201 -205 0
-202 -203 0
-202 -204 0
-202 -205 0
-203 -204 0
-203 -205 0
-204 -205 0
201 202 203 204 205 0
-206 -207 0
-206 -208 0
-206 -209 0
-206 -210 0
-207 -208 0
-207 -209 0
-207 -210 0
-208 -209 0
-208 -210 0
-209 -210 0
206 207 208 209 210 0
-211 -212 0
-211 -213 0
-211 -214 0
-211 -215 0
-212 -213 0
-212 -214 0
-212 -215 0
-213 -214 0
-213 -215 0
-214 -215 0
211 212 213 214 215 0
-216 -217 0
-216 -218 0
-216 -219 0
-216 -220 0
-217 -218 0
-217 -219 0
-217 -220 0
-218 -219 0
-218 -220 0
-219 -220 0
216 217 218 219 220 0
-221 -222 0
-221 -223 0
-221 -224 0
-221 -225 0
-222 -223 0
-222 -224 0
-222 -225 0
-223 -224 0
-223 -225 0
-224 -225 0
221 222 223 224 225 0
-226 -227 0
-226 -228 0
-226 -229 0
-226 -230 0
-227 -228 0
-227 -229 0
-227 -230 0
-228 -229 0
-228 -230 0
-229 -230 0
226 227 228 229 230 0
-231 -232 0
-231 -233 0
-231 -234 0
-231 -235 0
-232 -233 0
-232 -234 0
-232 -235 0
-233 -234 0
-233 -235 0
-234 -235 0
231 232 233 234 235 0
-236 -237 0
-236 -238 0
-236 -239 0
-236 -240 0
-237 -238 0
-237 -239 0
-237 -240 0
-238 -239 0
-238 -240 0
-239 -240 0
236 237 238 239 240 0
-241 -242 0
-241 -243 0
-241 -244 0
-241 -245 0
-242 -243 0
-242 -244 0
-242 -245 0
-243 -244 0
-243 -245 0
-244 -245 0
241 242 243 244 245 0
-246 -247 0
-246 -248 0
-246 -249 0
-246 -250 0
-247 -248 0
-247 -249 0
-247 -250 0
-248 -249 0
-248 -250 0
-249 -250 0
246 247 248 249 250 0
-251 -252 0
-251 -253 0
-251 -254 0
-251 -255 0
-252 -253 0
-252 -254 0
-252 -255 0
-253 -254 0
-253 -255 0
-254 -255 0
251 252 253 254 255 0
-256 -257 0
-256 -258 0
-256 -259 0
-256 -260 0
-257 -258 0
-257 -259 0
-257 -260 0
-258 -259 0
-258 -260 0
-259 -260 0
256 257 258 259 260 0
-261 -262 0
-261 -263 0
-261 -264 0
-261 -265 0
-262 -263 0
-262 -264 0
-262 -265 0
-263 -264 0
-263 -265 0
-264 -265 0
261 262 263 264 265 0
-266 -267 0
-266 -268 0
-266 -269 0
-266 -270 0
-267 -268 0
-267 -269 0
-267 -270 0
-268 -269 0
-268 -270 0
-269 -270 0
266 267 268 269 270 0
-271 -272 0
-271 -273 0
-271 -274 0
-271 -275 0
-272 -273 0
-272 -274 0
-272 -275 0
-273 -274 0
-273 -275 0
-274 -275 0
271 272 273 274 275 0
-276 -277 0
-276 -278 0
-276 -279 0
-276 -280 0
-277 -278 0
-277 -279 0
-277 -280 0
-278 -279 0
-278 -280 0
-279 -280 0
276 277 278 279 280 0
-281 -282 0
-281 -283 0
-281 -284 0
-281 -285 0
-282 -283 0
-282 -284 0
-282 -285 0
-283 -284 0
-283 -285 0
-284 -285 0
281 282 283 284 285 0
-286 -287 0
-286 -288 0
-286 -289 0
-286 -290 0
-287 -288 0
-287 -289 0
-287 -290 0
-288 -289 0
-288 -290 0
-289 -290 0
286 287 288 289 290 0
-291 -292 0
-291 -293 0
-291 -294 0
-291 -295 0
-292 -293 0
-292 -294 0
-292 -295 0
-293 -294 0
-293 -295 0
-294 -295 0
291 292 293 294 295 0
-296 -297 0
-296 -298 0
-296 -299 0
-296 -300 0
-297 -298 0
-297 -299 0
-297 -300 0
-298 -299 0
-298 -300 0
-299 -300 0
296 297 298 299 300 0
-301 -302 0
-301 -303 0
-301 -304 0
-301 -305 0
-302 -303 0
-302 -304 0
-302 -305 0
-303 -304 0
-303 -305 0
-304 -305 0
301 302 303 304 305 0
-306 -307 0
-306 -308 0
-306 -309 0
-306 -310 0
-307 -308 0
-307 -309 0
-307 -310 0
-308 -309 0
-308 -310 0
-309 -310 0
306 307 308 309 310 0
-311 -312 0
-311 -313 0
-311 -314 0
-311 -315 0
-312 -313 0
-312 -314 0
-312 -315 0
-313 -314 0
-313 -315 0
-314 -315 0
311 312 313 314 315 0
-316 -317 0
-316 -318 0
-316 -319 0
-316 -320 0
-317 -318 0
-317 -319 0
-317 -320 0
-318 -319 0
-318 -320 0
-319 -320 0
316 317 318 319 320 0
-321 -322 0
-321 -323 0
-321 -324 0
-321 -325 0
-322 -323 0
-322 -324 0
-322 -325 0
-323 -324 0
-323 -325 0
-324 -325 0
321 322 323 324 325 0
-326 -327 0
-326 -328 0
-326 -329 0
-326 -330 0
-327 -328 0
-327 -329 0
-327 -330 0
-328 -329 0
-328 -330 0
-329 -330 0
326 327 328 329 330 0
-331 -332 0
-331 -333 0
-331 -334 0
-331 -335 0
-332 -333 0
-332 -334 0
-332 -335 0
-333 -334 0
-333 -335 0
-334 -335 0
331 332 333 334 335 0
-336 -337 0
-336 -338 0
-336 -339 0
-336 -340 0
-337 -338 0
-337 -339 0
-337 -340 0
-338 -339 0
-338 -340 0
-339 -340 0
336 337 338 339 340 0
-341 -342 0
-341 -343 0
-341 -344 0
-341 -345 0
-342 -343 0
-342 -344 0
-342 -345 0
-343 -344 0
-343 -345 0
-344 -345 0
341 342 343 344 345 0
-346 -347 0
-346 -348 0
-346 -349 0
-346 -350 0
-347 -348 0
-347 -349 0
-347 -350 0
-348 -349 0
-348 -350 0
-349 -350 0
346 347 348 349 350 0
-351 -352 0
-351 -353 0
-351 -354 0
-351 -355 0
-352 -353 0
-352 -354 0
-352 -355 0
-353 -354 0
-353 -355 0
-354 -355 0
351 352 353 354 355 0
-356 -357 0
-356 -358 0
-356 -359 0
-356 -360 0
-357 -358 0
-357 -359 0
-357 -360 0
-358 -359 0
-358 -360 0
-359 -360 0
356 357 358 359 360 0
-361 -362 0
-361 -363 0
-361 -364 0
-361 -365 0
-362 -363 0
-362 -364 0
-362 -365 0
-363 -364 0
-363 -365 0
-364 -365 0
361 362 363 364 365 0
-366 -367 0
-366 -368 0
-366 -369 0
-366 -370 0
-367 -368 0
-367 -369 0
-367 -370 0
-368 -369 0
-368 -370 0
-369 -370 0
366 367 368 369 370 0
-371 -372 0
-371 -373 0
-371 -374 0
-371 -375 0
-372 -373 0
-372 -374 0
-372 -375 0
-373 -374 0
-373 -375 0
-374 -375 0
371 372 373 374 375 0
-376 -377 0
-376 -378 0
-376 -379 0
-376 -380 0
-377 -378 0
-377 -379 0
-377 -380 0
-378 -379 0
-378 -380 0
-379 -380 0
376 377 378 379 380 0
-381 -382 0
-381 -383 0
-381 -384 0
-381 -385 0
-382 -383 0
-382 -384 0
-382 -385 0
-383 -384 0
-383 -385 0
-384 -385 0
381 382 383 384 385 0
-386 -387 0
-386 -388 0
-386 -389 0
-386 -390 0
-387 -388 0
-387 -389 0
-387 -390 0
-388 -389 0
-388 -390 0
-389 -390 0
386 387 388 389 390 0
-391 -392 0
-391 -393 0
-391 -394 0
-391 -395 0
-392 -393 0
-392 -394 0
-392 -395 0
-393 -394 0
-393 -395 0
-394 -395 0
391 392 393 394 395 0
-396 -397 0
-396 -398 0
-396 -399 0
-396 -400 0
-397 -398 0
-397 -399 0
-397 -400 0
-398 -399 0
-398 -400 0
-399 -400 0
396 397 398 399 400 0
-401 -402 0
-401 -403 0
-401 -404 0
-401 -405 0
-402 -403 0
-402 -404 0
-402 -405 0
-403 -404 0
-403 -405 0
-404 -405 0
401 402 403 404 405 0
-406 -407 0
-406 -408 0
-406 -409 0
-406 -410 0
-407 -408 0
-407 -409 0
-407 -410 0
-408 -409 0
-408 -410 0
-409 -410 0
406 407 408 409 410 0
-411 -412 0
-411 -413 0
-411 -414 0
-411 -415 0
-412 -413 0
-412 -414 0
-412 -415 0
-413 -414 0
-413 -415 0
-414 -415 0
411 412 413 414 415 0
-416 -417 0
-416 -418 0
-416 -419 0
-416 -420 0
-417 -418 0
-417 -419 0
-417 -420 0
-418 -419 0
-418 -420 0
-419 -420 0
416 417 418 419 420 0
-421 -422 0
-421 -423 0
-421 -424 0
-421 -425 0
-422 -423 0
-422 -424 0
-422 -425 0
-423 -424 0
-423 -425 0
-424 -425 0
421 422 423 424 425 0
-426 -427 0
-426 -428 0
-426 -429 0
-426 -430 0
-427 -428 0
-427 -429 0
-427 -430 0
-428 -429 0
-428 -430 0
-429 -430 0
426 427 428 429 430 0
-431 -432 0
-431 -433 0
-431 -434 0
-431 -435 0
-432 -433 0
-432 -434 0
-432 -435 0
-433 -434 0
-433 -435 0
-434 -435 0
431 432 433 434 435 0
-436 -437 0
-436 -438 0
-436 -439 0
-436 -440 0
-437 -438 0
-437 -439 0
-437 -440 0
-438 -439 0
-438 -440 0
-439 -440 0
436 437 438 439 440 0
-441 -442 0
-441 -443 0
-441 -444 0
-441 -445 0
-442 -443 0
-442 -444 0
-442 -445 0
-443 -444 0
-443 -445 0
-444 -445 0
441 442 443 444 445 0
-446 -447 0
-446 -448 0
-446 -449 0
-446 -450 0
-447 -448 0
-447 -449 0
-447 -450 0
-448 -449 0
-448 -450 0
-449 -450 0
446 447 448 449 450 0
-451 -452 0
-451 -453 0
-451 -454 0
-451 -455 0
-452 -453 0
-452 -454 0
-452 -455 0
-453 -454 0
-453 -455 0
-454 -455 0
451 452 453 454 455 0
-456 -457 0
-456 -458 0
-456 -459 0
-456 -460 0
-457 -458 0
-457 -459 0
-457 -460 0
-458 -459 0
-458 -460 0
-459 -460 0
456 457 458 459 460 0
-461 -462 0
-461 -463 0
-461 -464 0
-461 -465 0
-462 -463 0
-462 -464 0
-462 -465 0
-463 -464 0
-463 -465 0
-464 -465 0
461 462 463 464 465 0
-466 -467 0
-466 -468 0
-466 -469 0
-466 -470 0
-467 -468 0
-467 -469 0
-467 -470 0
-468 -469 0
-468 -470 0
-469 -470 0
466 467 468 469 470 0
-471 -472 0
-471 -473 0
-471 -474 0
-471 -475 0
-472 -473 0
-472 -474 0
-472 -475 0
-473 -474 0
-473 -475 0
-474 -475 0
471 472 473 474 475 0
-476 -477 0
-476 -478 0
-476 -479 0
-476 -480 0
-477 -478 0
-477 -479 0
-477 -480 0
-478 -479 0
-478 -480 0
-479 -480 0
476 477 478 479 480 0
-481 -482 0
-481 -483 0
-481 -484 0
-481 -485 0
-482 -483 0
-482 -484 0
-482 -485 0
-483 -484 0
-483 -485 0
-484 -485 0
481 482 483 484 485 0
-486 -487 0
-486 -488 0
-486 -489 0
-486 -490 0
-487 -488 0
-487 -489 0
-487 -490 0
-488 -489 0
-488 -490 0
-489 -490 0
486 487 488 489 490 0
-491 -492 0
-491 -493 0
-491 -494 0
-491 -495 0
-492 -493 0
-492 -494 0
-492 -495 0
-493 -494 0
-493 -495 0
-494 -495 0
491 492 493 494 495 0
-496 -497 0
-496 -498 0
-496 -499 0
-496 -500 0
-497 -498 0
-497 -499 0
-497 -500 0
-498 -499 0
-498 -500 0
-499 -500 0
496 497 498 499 500 0
-11 -16 0
-12 -17 0
-13 -18 0
-14 -19 0
-15 -20 0
-21 -36 0
-22 -37 0
-23 -38 0
-24 -39 0
-25 -40 0
-26 -41 0
-27 -42 0
-28 -43 0
-29 -44 0
-30 -45 0
-36 -56 0
-37 -57 0
-38 -58 0
-39 -59 0
-40 -60 0
-46 -56 0
-47 -57 0
-48 -58 0
-49 -59 0
-50 -60 0
-46 -61 0
-47 -62 0
-48 -63 0
-49 -64 0
-50 -65 0
-101 -116 0
-102 -117 0
-103 -118 0
-104 -119 0
-105 -120 0
-116 -121 0
-117 -122 0
-118 -123 0
-119 -124 0
-120 -125 0
-131 -146 0
-132 -147 0
-133 -148 0
-134 -149 0
-135 -150 0
-166 -181 0
-167 -182 0
-168 -183 0
-169 -184 0
-170 -185 0
-181 -186 0
-182 -187 0
-183 -188 0
-184 -189 0
-185 -190 0
-181 -196 0
-182 -197 0
-183 -198 0
-184 -199 0
-185 -200 0
-196 -206 0
-197 -207 0
-198 -208 0
-199 -209 0
-200 -210 0
-201 -216 0
-202 -217 0
-203 -218 0
-204 -219 0
-205 -220 0
-216 -221 0
-217 -222 0
-218 -223 0
-219 -224 0
-220 -225 0
-236 -246 0
-237 -247 0
-238 -248 0
-239 -249 0
-240 -250 0
-241 -256 0
-242 -257 0
-243 -258 0
-244 -259 0
-245 -260 0
-306 -326 0
-307 -327 0
-308 -328 0
-309 -329 0
-310 -330 0
-331 -336 0
-332 -337 0
-333 -338 0
-334 -339 0
-335 -340 0
-336 -346 0
-337 -347 0
-338 -348 0
-339 -349 0
-340 -350 0
-336 -356 0
-337 -357 0
-338 -358 0
-339 -359 0
-340 -360 0
-346 -361 0
-347 -362 0
-348 -363 0
-349 -364 0
-350 -365 0
-366 -371 0
-367 -372 0
-368 -373 0
-369 -374 0
-370 -375 0
-366 -381 0
-367 -382 0
-368 -383 0
-369 -384 0
-370 -385 0
-376 -396 0
-377 -397 0
-378 -398 0
-379 -399 0
-380 -400 0
-391 -396 0
-392 -397 0
-393 -398 0
-394 -399 0
-395 -400 0
-396 -406 0
-397 -407 0
-398 -408 0
-399 -409 0
-400 -410 0
-396 -416 0
-397 -417 0
-398 -418 0
-399 -419 0
-400 -420 0
-401 -416 0
-402 -417 0
-403 -418 0
-404 -419 0
-405 -420 0
-421 -441 0
-422 -442 0
-423 -443 0
-424 -444 0
-425 -445 0
-431 -436 0
-432 -437 0
-433 -438 0
-434 -439 0
-435 -440 0
-436 -446 0
-437 -447 0
-438 -448 0
-439 -449 0
-440 -450 0
-441 -456 0
-442 -457 0
-443 -458 0
-444 -459 0
-445 -460 0
-6 -491 0
-7 -492 0
-8 -493 0
-9 -494 0
-10 -495 0
-6 -496 0
-7 -497 0
-8 -498 0
-9 -499 0
-10 -500 0
-11 -496 0
-12 -497 0
-13 -498 0
-14 -499 0
-15 -500 0
-1 -496 0
-2 -497 0
-3 -498 0
-4 -499 0
-5 -500 0
-1 -491 0
-2 -492 0
-3 -493 0
-4 -494 0
-5 -495 0
-491 -496 0
-492 -497 0
-493 -498 0
-494 -499 0
-495 -500 0
-1 -486 0
-2 -487 0
-3 -488 0
-4 -489 0
-5 -490 0
-486 -496 0
-487 -497 0
-488 -498 0
-489 -499 0
-490 -500 0
-481 -496 0
-482 -497 0
-483 -498 0
-484 -499 0
-485 -500 0
-481 -486 0
-482 -487 0
-483 -488 0
-484 -489 0
-485 -490 0
-476 -496 0
-477 -497 0
-478 -498 0
-479 -499 0
-480 -500 0
-476 -491 0
-477 -492 0
-478 -493 0
-479 -494 0
-480 -495 0
-476 -481 0
-477 -482 0
-478 -483 0
-479 -484 0
-480 -485 0
-471 -491 0
-472 -492 0
-473 -493 0
-474 -494 0
-475 -495 0
-471 -486 0
-472 -487 0
-473 -488 0
-474 -489 0
-475 -490 0
-471 -481 0
-472 -482 0
-473 -483 0
-474 -484 0
-475 -485 0
-471 -476 0
-472 -477 0
-473 -478 0
-474 -479 0
-475 -480 0
-466 -486 0
-467 -487 0
-468 -488 0
-469 -489 0
-470 -490 0
-466 -481 0
-467 -482 0
-468 -483 0
-469 -484 0
-470 -485 0
-466 -476 0
-467 -477 0
-468 -478 0
-469 -479 0
-470 -480 0
-461 -481 0
-462 -482 0
-463 -483 0
-464 -484 0
-465 -485 0
-461 -471 0
-462 -472 0
-463 -473 0
-464 -474 0
-465 -475 0
-461 -466 0
-462 -467 0
-463 -468 0
-464 -469 0
-465 -470 0
-456 -476 0
-457 -477 0
-458 -478 0
-459 -479 0
-460 -480 0
-456 -466 0
-457 -467 0
-458 -468 0
-459 -469 0
-460 -470 0
-451 -471 0
-452 -472 0
-453 -473 0
-454 -474 0
-455 -475 0
-451 -466 0
-452 -467 0
-453 -468 0
-454 -469 0
-455 -470 0
-451 -461 0
-452 -462 0
-453 -463 0
-454 -464 0
-455 -465 0
-451 -456 0
-452 -457 0
-453 -458 0
-454 -459 0
-455 -460 0
-446 -466 0
-447 -467 0
-448 -468 0
-449 -469 0
-450 -470 0
-446 -461 0
-447 -462 0
-448 -463 0
-449 -464 0
-450 -465 0
-446 -456 0
-447 -457 0
-448 -458 0
-449 -459 0
-450 -460 0
-446 -451 0
-447 -452 0
-448 -453 0
-449 -454 0
-450 -455 0
-441 -451 0
-442 -452 0
-443 -453 0
-444 -454 0
-445 -455 0
-441 -446 0
-442 -447 0
-443 -448 0
-444 -449 0
-445 -450 0
-436 -456 0
-437 -457 0
-438 -458 0
-439 -459 0
-440 -460 0
-436 -451 0
-437 -452 0
-438 -453 0
-439 -454 0
-440 -455 0
-436 -441 0
-437 -442 0
-438 -443 0
-439 -444 0
-440 -445 0
-431 -446 0
-432 -447 0
-433 -448 0
-434 -449 0
-435 -450 0
-426 -446 0
-427 -447 0
-428 -448 0
-429 -449 0
-430 -450 0
-426 -441 0
-427 -442 0
-428 -443 0
-429 -444 0
-430 -445 0
-426 -431 0
-427 -432 0
-428 -433 0
-429 -434 0
-430 -435 0
-421 -431 0
-422 -432 0
-423 -433 0
-424 -434 0
-425 -435 0
-416 -436 0
-417 -437 0
-418 -438 0
-419 -439 0
-420 -440 0
-416 -431 0
-417 -432 0
-418 -433 0
-419 -434 0
-420 -435 0
-416 -426 0
-417 -427 0
-418 -428 0
-419 -429 0
-420 -430 0
-416 -421 0
-417 -422 0
-418 -423 0
-419 -424 0
-420 -425 0
-411 -426 0
-412 -427 0
-413 -428 0
-414 -429 0
-415 -430 0
-411 -421 0
-412 -422 0
-413 -423 0
-414 -424 0
-415 -425 0
-411 -416 0
-412 -417 0
-413 -418 0
-414 -419 0
-415 -420 0
-406 -426 0
-407 -427 0
-408 -428 0
-409 -429 0
-410 -430 0
-406 -421 0
-407 -422 0
-408 -423 0
-409 -424 0
-410 -425 0
-406 -416 0
-407 -417 0
-408 -418 0
-409 -419 0
-410 -420 0
-406 -411 0
-407 -412 0
-408 -413 0
-409 -414 0
-410 -415 0
-401 -421 0
-402 -422 0
-403 -423 0
-404 -424 0
-405 -425 0
-401 -411 0
-402 -412 0
-403 -413 0
-404 -414 0
-405 -415 0
-401 -406 0
-402 -407 0
-403 -408 0
-404 -409 0
-405 -410 0
-396 -411 0
-397 -412 0
-398 -413 0
-399 -414 0
-400 -415 0
-396 -401 0
-397 -402 0
-398 -403 0
-399 -404 0
-400 -405 0
-391 -411 0
-392 -412 0
-393 -413 0
-394 -414 0
-395 -415 0
-391 -406 0
-392 -407 0
-393 -408 0
-394 -409 0
-395 -410 0
-391 -401 0
-392 -402 0
-393 -403 0
-394 -404 0
-395 -405 0
-386 -406 0
-387 -407 0
-388 -408 0
-389 -409 0
-390 -410 0
-386 -401 0
-387 -402 0
-388 -403 0
-389 -404 0
-390 -405 0
-386 -396 0
-387 -397 0
-388 -398 0
-389 -399 0
-390 -400 0
-386 -391 0
-387 -392 0
-388 -393 0
-389 -394 0
-390 -395 0
-381 -401 0
-382 -402 0
-383 -403 0
-384 -404 0
-385 -405 0
-381 -396 0
-382 -397 0
-383 -398 0
-384 -399 0
-385 -400 0
-381 -391 0
-382 -392 0
-383 -393 0
-384 -394 0
-385 -395 0
-376 -391 0
-377 -392 0
-378 -393 0
-379 -394 0
-380 -395 0
-376 -386 0
-377 -387 0
-378 -388 0
-379 -389 0
-380 -390 0
-376 -381 0
-377 -382 0
-378 -383 0
-379 -384 0
-380 -385 0
-371 -386 0
-372 -387 0
-373 -388 0
-374 -389 0
-375 -390 0
-371 -376 0
-372 -377 0
-373 -378 0
-374 -379 0
-375 -380 0
-366 -386 0
-367 -387 0
-368 -388 0
-369 -389 0
-370 -390 0
-366 -376 0
-367 -377 0
-368 -378 0
-369 -379 0
-370 -380 0
-361 -376 0
-362 -377 0
-363 -378 0
-364 -379 0
-365 -380 0
-361 -371 0
-362 -372 0
-363 -373 0
-364 -374 0
-365 -375 0
-361 -366 0
-362 -367 0
-363 -368 0
-364 -369 0
-365 -370 0
-356 -376 0
-357 -377 0
-358 -378 0
-359 -379 0
-360 -380 0
-356 -371 0
-357 -372 0
-358 -373 0
-359 -374 0
-360 -375 0
-356 -366 0
-357 -367 0
-358 -368 0
-359 -369 0
-360 -370 0
-356 -361 0
-357 -362 0
-358 -363 0
-359 -364 0
-360 -365 0
-351 -371 0
-352 -372 0
-353 -373 0
-354 -374 0
-355 -375 0
-351 -366 0
-352 -367 0
-353 -368 0
-354 -369 0
-355 -370 0
-351 -356 0
-352 -357 0
-353 -358 0
-354 -359 0
-355 -360 0
-346 -366 0
-347 -367 0
-348 -368 0
-349 -369 0
-350 -370 0
-346 -356 0
-347 -357 0
-348 -358 0
-349 -359 0
-350 -360 0
-341 -361 0
-342 -362 0
-343 -363 0
-344 -364 0
-345 -365 0
-341 -356 0
-342 -357 0
-343 -358 0
-344 -359 0
-345 -360 0
-341 -351 0
-342 -352 0
-343 -353 0
-344 -354 0
-345 -355 0
-336 -351 0
-337 -352 0
-338 -353 0
-339 -354 0
-340 -355 0
-336 -341 0
-337 -342 0
-338 -343 0
-339 -344 0
-340 -345 0
-331 -351 0
-332 -352 0
-333 -353 0
-334 -354 0
-335 -355 0
-331 -346 0
-332 -347 0
-333 -348 0
-334 -349 0
-335 -350 0
-331 -341 0
-332 -342 0
-333 -343 0
-334 -344 0
-335 -345 0
-326 -346 0
-327 -347 0
-328 -348 0
-329 -349 0
-330 -350 0
-326 -336 0
-327 -337 0
-328 -338 0
-329 -339 0
-330 -340 0
-326 -331 0
-327 -332 0
-328 -333 0
-329 -334 0
-330 -335 0
-321 -341 0
-322 -342 0
-323 -343 0
-324 -344 0
-325 -345 0
-321 -331 0
-322 -332 0
-323 -333 0
-324 -334 0
-325 -335 0
-316 -336 0
-317 -337 0
-318 -338 0
-319 -339 0
-320 -340 0
-316 -321 0
-317 -322 0
-318 -323 0
-319 -324 0
-320 -325 0
-311 -326 0
-312 -327 0
-313 -328 0
-314 -329 0
-315 -330 0
-311 -316 0
-312 -317 0
-313 -318 0
-314 -319 0
-315 -320 0
-306 -321 0
-307 -322 0
-308 -323 0
-309 -324 0
-310 -325 0
-301 -321 0
-302 -322 0
-303 -323 0
-304 -324 0
-305 -325 0
-301 -311 0
-302 -312 0
-303 -313 0
-304 -314 0
-305 -315 0
-296 -311 0
-297 -312 0
-298 -313 0
-299 -314 0
-300 -315 0
-296 -306 0
-297 -307 0
-298 -308 0
-299 -309 0
-300 -310 0
-296 -301 0
-297 -302 0
-298 -303 0
-299 -304 0
-300 -305 0
-291 -311 0
-292 -312 0
-293 -313 0
-294 -314 0
-295 -315 0
-291 -306 0
-292 -307 0
-293 -308 0
-294 -309 0
-295 -310 0
-291 -301 0
-292 -302 0
-293 -303 0
-294 -304 0
-295 -305 0
-291 -296 0
-292 -297 0
-293 -298 0
-294 -299 0
-295 -300 0
-286 -306 0
-287 -307 0
-288 -308 0
-289 -309 0
-290 -310 0
-286 -301 0
-287 -302 0
-288 -303 0
-289 -304 0
-290 -305 0
-281 -301 0
-282 -302 0
-283 -303 0
-284 -304 0
-285 -305 0
-281 -296 0
-282 -297 0
-283 -298 0
-284 -299 0
-285 -300 0
-281 -286 0
-282 -287 0
-283 -288 0
-284 -289 0
-285 -290 0
-276 -296 0
-277 -297 0
-278 -298 0
-279 -299 0
-280 -300 0
-276 -291 0
-277 -292 0
-278 -293 0
-279 -294 0
-280 -295 0
-276 -286 0
-277 -287 0
-278 -288 0
-279 -289 0
-280 -290 0
-271 -291 0
-272 -292 0
-273 -293 0
-274 -294 0
-275 -295 0
-271 -286 0
-272 -287 0
-273 -288 0
-274 -289 0
-275 -290 0
-271 -281 0
-272 -282 0
-273 -283 0
-274 -284 0
-275 -285 0
-271 -276 0
-272 -277 0
-273 -278 0
-274 -279 0
-275 -280 0
-266 -281 0
-267 -282 0
-268 -283 0
-269 -284 0
-270 -285 0
-266 -276 0
-267 -277 0
-268 -278 0
-269 -279 0
-270 -280 0
-266 -271 0
-267 -272 0
-268 -273 0
-269 -274 0
-270 -275 0
-261 -281 0
-262 -282 0
-263 -283 0
-264 -284 0
-265 -285 0
-261 -276 0
-262 -277 0
-263 -278 0
-264 -279 0
-265 -280 0
-261 -271 0
-262 -272 0
-263 -273 0
-264 -274 0
-265 -275 0
-261 -266 0
-262 -267 0
-263 -268 0
-264 -269 0
-265 -270 0
-256 -276 0
-257 -277 0
-258 -278 0
-259 -279 0
-260 -280 0
-256 -271 0
-257 -272 0
-258 -273 0
-259 -274 0
-260 -275 0
-256 -266 0
-257 -267 0
-258 -268 0
-259 -269 0
-260 -270 0
-256 -261 0
-257 -262 0
-258 -263 0
-259 -264 0
-260 -265 0
-251 -271 0
-252 -272 0
-253 -273 0
-254 -274 0
-255 -275 0
-251 -261 0
-252 -262 0
-253 -263 0
-254 -264 0
-255 -265 0
-251 -256 0
-252 -257 0
-253 -258 0
-254 -259 0
-255 -260 0
-246 -266 0
-247 -267 0
-248 -268 0
-249 -269 0
-250 -270 0
-246 -261 0
-247 -262 0
-248 -263 0
-249 -264 0
-250 -265 0
-246 -256 0
-247 -257 0
-248 -258 0
-249 -259 0
-250 -260 0
-246 -251 0
-247 -252 0
-248 -253 0
-249 -254 0
-250 -255 0
-241 -261 0
-242 -262 0
-243 -263 0
-244 -264 0
-245 -265 0
-241 -251 0
-242 -252 0
-243 -253 0
-244 -254 0
-245 -255 0
-241 -246 0
-242 -247 0
-243 -248 0
-244 -249 0
-245 -250 0
-236 -256 0
-237 -257 0
-238 -258 0
-239 -259 0
-240 -260 0
-236 -251 0
-237 -252 0
-238 -253 0
-239 -254 0
-240 -255 0
-236 -241 0
-237 -242 0
-238 -243 0
-239 -244 0
-240 -245 0
-231 -251 0
-232 -252 0
-233 -253 0
-234 -254 0
-235 -255 0
-231 -241 0
-232 -242 0
-233 -243 0
-234 -244 0
-235 -245 0
-231 -236 0
-232 -237 0
-233 -238 0
-234 -239 0
-235 -240 0
-226 -231 0
-227 -232 0
-228 -233 0
-229 -234 0
-230 -235 0
-221 -241 0
-222 -242 0
-223 -243 0
-224 -244 0
-225 -245 0
-221 -236 0
-222 -237 0
-223 -238 0
-224 -239 0
-225 -240 0
-221 -231 0
-222 -232 0
-223 -233 0
-224 -234 0
-225 -235 0
-216 -236 0
-217 -237 0
-218 -238 0
-219 -239 0
-220 -240 0
-211 -231 0
-212 -232 0
-213 -233 0
-214 -234 0
-215 -235 0
-211 -226 0
-212 -227 0
-213 -228 0
-214 -229 0
-215 -230 0
-211 -221 0
-212 -222 0
-213 -223 0
-214 -224 0
-215 -225 0
-211 -216 0
-212 -217 0
-213 -218 0
-214 -219 0
-215 -220 0
-206 -226 0
-207 -227 0
-208 -228 0
-209 -229 0
-210 -230 0
-206 -216 0
-207 -217 0
-208 -218 0
-209 -219 0
-210 -220 0
-206 -211 0
-207 -212 0
-208 -213 0
-209 -214 0
-210 -215 0
-201 -221 0
-202 -222 0
-203 -223 0
-204 -224 0
-205 -225 0
-201 -211 0
-202 -212 0
-203 -213 0
-204 -214 0
-205 -215 0
-201 -206 0
-202 -207 0
-203 -208 0
-204 -209 0
-205 -210 0
-196 -216 0
-197 -217 0
-198 -218 0
-199 -219 0
-200 -220 0
-196 -211 0
-197 -212 0
-198 -213 0
-199 -214 0
-200 -215 0
-196 -201 0
-197 -202 0
-198 -203 0
-199 -204 0
-200 -205 0
-191 -211 0
-192 -212 0
-193 -213 0
-194 -214 0
-195 -215 0
-191 -201 0
-192 -202 0
-193 -203 0
-194 -204 0
-195 -205 0
-191 -196 0
-192 -197 0
-193 -198 0
-194 -199 0
-195 -200 0
-186 -206 0
-187 -207 0
-188 -208 0
-189 -209 0
-190 -210 0
-186 -201 0
-187 -202 0
-188 -203 0
-189 -204 0
-190 -205 0
-186 -196 0
-187 -197 0
-188 -198 0
-189 -199 0
-190 -200 0
-186 -191 0
-187 -192 0
-188 -193 0
-189 -194 0
-190 -195 0
-181 -201 0
-182 -202 0
-183 -203 0
-184 -204 0
-185 -205 0
-181 -191 0
-182 -192 0
-183 -193 0
-184 -194 0
-185 -195 0
-176 -196 0
-177 -197 0
-178 -198 0
-179 -199 0
-180 -200 0
-171 -191 0
-172 -192 0
-173 -193 0
-174 -194 0
-175 -195 0
-171 -186 0
-172 -187 0
-173 -188 0
-174 -189 0
-175 -190 0
-171 -181 0
-172 -182 0
-173 -183 0
-174 -184 0
-175 -185 0
-171 -176 0
-172 -177 0
-173 -178 0
-174 -179 0
-175 -180 0
-166 -171 0
-167 -172 0
-168 -173 0
-169 -174 0
-170 -175 0
-161 -181 0
-162 -182 0
-163 -183 0
-164 -184 0
-165 -185 0
-161 -176 0
-162 -177 0
-163 -178 0
-164 -179 0
-165 -180 0
-161 -166 0
-162 -167 0
-163 -168 0
-164 -169 0
-165 -170 0
-156 -176 0
-157 -177 0
-158 -178 0
-159 -179 0
-160 -180 0
-156 -171 0
-157 -172 0
-158 -173 0
-159 -174 0
-160 -175 0
-156 -166 0
-157 -167 0
-158 -168 0
-159 -169 0
-160 -170 0
-156 -161 0
-157 -162 0
-158 -163 0
-159 -164 0
-160 -165 0
-151 -171 0
-152 -172 0
-153 -173 0
-154 -174 0
-155 -175 0
-151 -166 0
-152 -167 0
-153 -168 0
-154 -169 0
-155 -170 0
-151 -156 0
-152 -157 0
-153 -158 0
-154 -159 0
-155 -160 0
-146 -161 0
-147 -162 0
-148 -163 0
-149 -164 0
-150 -165 0
-146 -156 0
-147 -157 0
-148 -158 0
-149 -159 0
-150 -160 0
-141 -151 0
-142 -152 0
-143 -153 0
-144 -154 0
-145 -155 0
-141 -146 0
-142 -147 0
-143 -148 0
-144 -149 0
-145 -150 0
-136 -156 0
-137 -157 0
-138 -158 0
-139 -159 0
-140 -160 0
-136 -151 0
-137 -152 0
-138 -153 0
-139 -154 0
-140 -155 0
-136 -146 0
-137 -147 0
-138 -148 0
-139 -149 0
-140 -150 0
-136 -141 0
-137 -142 0
-138 -143 0
-139 -144 0
-140 -145 0
-131 -141 0
-132 -142 0
-133 -143 0
-134 -144 0
-135 -145 0
-131 -136 0
-132 -137 0
-133 -138 0
-134 -139 0
-135 -140 0
-126 -146 0
-127 -147 0
-128 -148 0
-129 -149 0
-130 -150 0
-126 -141 0
-127 -142 0
-128 -143 0
-129 -144 0
-130 -145 0
-126 -131 0
-127 -132 0
-128 -133 0
-129 -134 0
-130 -135 0
-121 -141 0
-122 -142 0
-123 -143 0
-124 -144 0
-125 -145 0
-121 -136 0
-122 -137 0
-123 -138 0
-124 -139 0
-125 -140 0
-121 -131 0
-122 -132 0
-123 -133 0
-124 -134 0
-125 -135 0
-121 -126 0
-122 -127 0
-123 -128 0
-124 -129 0
-125 -130 0
-116 -136 0
-117 -137 0
-118 -138 0
-119 -139 0
-120 -140 0
-116 -131 0
-117 -132 0
-118 -133 0
-119 -134 0
-120 -135 0
-116 -126 0
-117 -127 0
-118 -128 0
-119 -129 0
-120 -130 0
-111 -131 0
-112 -132 0
-113 -133 0
-114 -134 0
-115 -135 0
-111 -126 0
-112 -127 0
-113 -128 0
-114 -129 0
-115 -130 0
-111 -121 0
-112 -122 0
-113 -123 0
-114 -124 0
-115 -125 0
-106 -126 0
-107 -127 0
-108 -128 0
-109 -129 0
-110 -130 0
-106 -121 0
-107 -122 0
-108 -123 0
-109 -124 0
-110 -125 0
-106 -116 0
-107 -117 0
-108 -118 0
-109 -119 0
-110 -120 0
-106 -111 0
-107 -112 0
-108 -113 0
-109 -114 0
-110 -115 0
-101 -106 0
-102 -107 0
-103 -108 0
-104 -109 0
-105 -110 0
-96 -111 0
-97 -112 0
-98 -113 0
-99 -114 0
-100 -115 0
-96 -106 0
-97 -107 0
-98 -108 0
-99 -109 0
-100 -110 0
-91 -111 0
-92 -112 0
-93 -113 0
-94 -114 0
-95 -115 0
-91 -106 0
-92 -107 0
-93 -108 0
-94 -109 0
-95 -110 0
-91 -101 0
-92 -102 0
-93 -103 0
-94 -104 0
-95 -105 0
-91 -96 0
-92 -97 0
-93 -98 0
-94 -99 0
-95 -100 0
-86 -106 0
-87 -107 0
-88 -108 0
-89 -109 0
-90 -110 0
-86 -96 0
-87 -97 0
-88 -98 0
-89 -99 0
-90 -100 0
-81 -101 0
-82 -102 0
-83 -103 0
-84 -104 0
-85 -105 0
-81 -96 0
-82 -97 0
-83 -98 0
-84 -99 0
-85 -100 0
-81 -86 0
-82 -87 0
-83 -88 0
-84 -89 0
-85 -90 0
-76 -96 0
-77 -97 0
-78 -98 0
-79 -99 0
-80 -100 0
-76 -91 0
-77 -92 0
-78 -93 0
-79 -94 0
-80 -95 0
-76 -86 0
-77 -87 0
-78 -88 0
-79 -89 0
-80 -90 0
-71 -86 0
-72 -87 0
-73 -88 0
-74 -89 0
-75 -90 0
-71 -81 0
-72 -82 0
-73 -83 0
-74 -84 0
-75 -85 0
-66 -86 0
-67 -87 0
-68 -88 0
-69 -89 0
-70 -90 0
-66 -76 0
-67 -77 0
-68 -78 0
-69 -79 0
-70 -80 0
-66 -71 0
-67 -72 0
-68 -73 0
-69 -74 0
-70 -75 0
-61 -76 0
-62 -77 0
-63 -78 0
-64 -79 0
-65 -80 0
-61 -71 0
-62 -72 0
-63 -73 0
-64 -74 0
-65 -75 0
-56 -76 0
-57 -77 0
-58 -78 0
-59 -79 0
-60 -80 0
-56 -71 0
-57 -72 0
-58 -73 0
-59 -74 0
-60 -75 0
-56 -61 0
-57 -62 0
-58 -63 0
-59 -64 0
-60 -65 0
-51 -71 0
-52 -72 0
-53 -73 0
-54 -74 0
-55 -75 0
-51 -66 0
-52 -67 0
-53 -68 0
-54 -69 0
-55 -70 0
-51 -61 0
-52 -62 0
-53 -63 0
-54 -64 0
-55 -65 0
-51 -56 0
-52 -57 0
-53 -58 0
-54 -59 0
-55 -60 0
-46 -66 0
-47 -67 0
-48 -68 0
-49 -69 0
-50 -70 0
-46 -51 0
-47 -52 0
-48 -53 0
-49 -54 0
-50 -55 0
-41 -61 0
-42 -62 0
-43 -63 0
-44 -64 0
-45 -65 0
-41 -51 0
-42 -52 0
-43 -53 0
-44 -54 0
-45 -55 0
-41 -46 0
-42 -47 0
-43 -48 0
-44 -49 0
-45 -50 0
-36 -46 0
-37 -47 0
-38 -48 0
-39 -49 0
-40 -50 0
-36 -41 0
-37 -42 0
-38 -43 0
-39 -44 0
-40 -45 0
-31 -46 0
-32 -47 0
-33 -48 0
-34 -49 0
-35 -50 0
-31 -41 0
-32 -42 0
-33 -43 0
-34 -44 0
-35 -45 0
-26 -46 0
-27 -47 0
-28 -48 0
-29 -49 0
-30 -50 0
-26 -31 0
-27 -32 0
-28 -33 0
-29 -34 0
-30 -35 0
-21 -41 0
-22 -42 0
-23 -43 0
-24 -44 0
-25 -45 0
-21 -31 0
-22 -32 0
-23 -33 0
-24 -34 0
-25 -35 0
-21 -26 0
-22 -27 0
-23 -28 0
-24 -29 0
-25 -30 0
-16 -21 0
-17 -22 0
-18 -23 0
-19 -24 0
-20 -25 0
-11 -31 0
-12 -32 0
-13 -33 0
-14 -34 0
-15 -35 0
-11 -26 0
-12 -27 0
-13 -28 0
-14 -29 0
-15 -30 0
-6 -26 0
-7 -27 0
-8 -28 0
-9 -29 0
-10 -30 0
-6 -21 0
-7 -22 0
-8 -23 0
-9 -24 0
-10 -25 0
-1 -21 0
-2 -22 0
-3 -23 0
-4 -24 0
-5 -25 0
-1 -16 0
-2 -17 0
-3 -18 0
-4 -19 0
-5 -20 0
-1 -11 0
-2 -12 0
-3 -13 0
-4 -14 0
-5 -15 0
-1 -6 0
-2 -7 0
-3 -8 0
-4 -9 0
-5 -10 0
-246 -276 0
-247 -277 0
-248 -278 0
-249 -279 0
-250 -280 0
-131 -236 0
-132 -237 0
-133 -238 0
-134 -239 0
-135 -240 0
-211 -451 0
-212 -452 0
-213 -453 0
-214 -454 0
-215 -455 0
-406 -496 0
-407 -497 0
-408 -498 0
-409 -499 0
-410 -500 0
-36 -416 0
-37 -417 0
-38 -418 0
-39 -419 0
-40 -420 0
-16 -126 0
-17 -127 0
-18 -128 0
-19 -129 0
-20 -130 0
-336 -371 0
-337 -372 0
-338 -373 0
-339 -374 0
-340 -375 0
-11 -81 0
-12 -82 0
-13 -83 0
-14 -84 0
-15 -85 0
-31 -306 0
-32 -307 0
-33 -308 0
-34 -309 0
-35 -310 0
-256 -331 0
-257 -332 0
-258 -333 0
-259 -334 0
-260 -335 0
-246 -301 0
-247 -302 0
-248 -303 0
-249 -304 0
-250 -305 0
-146 -471 0
-147 -472 0
-148 -473 0
-149 -474 0
-150 -475 0
-46 -191 0
-47 -192 0
-48 -193 0
-49 -194 0
-50 -195 0
-51 -211 0
-52 -212 0
-53 -213 0
-54 -214 0
-55 -215 0
-216 -466 0
-217 -467 0
-218 -468 0
-219 -469 0
-220 -470 0
-111 -151 0
-112 -152 0
-113 -153 0
-114 -154 0
-115 -155 0
-221 -251 0
-222 -252 0
-223 -253 0
-224 -254 0
-225 -255 0
-11 -376 0
-12 -377 0
-13 -378 0
-14 -379 0
-15 -380 0
-236 -451 0
-237 -452 0
-238 -453 0
-239 -454 0
-240 -455 0
-156 -326 0
-157 -327 0
-158 -328 0
-159 -329 0
-160 -330 0
-136 -216 0
-137 -217 0
-138 -218 0
-139 -219 0
-140 -220 0
-271 -436 0
-272 -437 0
-273 -438 0
-274 -439 0
-275 -440 0
-101 -166 0
-102 -167 0
-103 -168 0
-104 -169 0
-105 -170 0
-26 -211 0
-27 -212 0
-28 -213 0
-29 -214 0
-30 -215 0
-1 -476 0
-2 -477 0
-3 -478 0
-4 -479 0
-5 -480 0
-406 -466 0
-407 -467 0
-408 -468 0
-409 -469 0
-410 -470 0
-381 -446 0
-382 -447 0
-383 -448 0
-384 -449 0
-385 -450 0
-176 -291 0
-177 -292 0
-178 -293 0
-179 -294 0
-180 -295 0
-121 -286 0
-122 -287 0
-123 -288 0
-124 -289 0
-125 -290 0
-111 -391 0
-112 -392 0
-113 -393 0
-114 -394 0
-115 -395 0
-71 -201 0
-72 -202 0
-73 -203 0
-74 -204 0
-75 -205 0
-181 -246 0
-182 -247 0
-183 -248 0
-184 -249 0
-185 -250 0
-81 -426 0
-82 -427 0
-83 -428 0
-84 -429 0
-85 -430 0
-21 -66 0
-22 -67 0
-23 -68 0
-24 -69 0
-25 -70 0
-191 -256 0
-192 -257 0
-193 -258 0
-194 -259 0
-195 -260 0
-76 -246 0
-77 -247 0
-78 -248 0
-79 -249 0
-80 -250 0
-111 -351 0
-112 -352 0
-113 -353 0
-114 -354 0
-115 -355 0
-216 -416 0
-217 -417 0
-218 -418 0
-219 -419 0
-220 -420 0
-1 -106 0
-2 -107 0
-3 -108 0
-4 -109 0
-5 -110 0
-291 -471 0
-292 -472 0
-293 -473 0
-294 -474 0
-295 -475 0
-61 -236 0
-62 -237 0
-63 -238 0
-64 -239 0
-65 -240 0
-281 -341 0
-282 -342 0
-283 -343 0
-284 -344 0
-285 -345 0
-231 -286 0
-232 -287 0
-233 -288 0
-234 -289 0
-235 -290 0
-316 -486 0
-317 -487 0
-318 -488 0
-319 -489 0
-320 -490 0
-141 -216 0
-142 -217 0
-143 -218 0
-144 -219 0
-145 -220 0
-41 -366 0
-42 -367 0
-43 -368 0
-44 -369 0
-45 -370 0
-156 -401 0
-157 -402 0
-158 -403 0
-159 -404 0
-160 -405 0
-11 -361 0
-12 -362 0
-13 -363 0
-14 -364 0
-15 -365 0
-331 -446 0
-332 -447 0
-333 -448 0
-334 -449 0
-335 -450 0
-376 -421 0
-377 -422 0
-378 -423 0
-379 -424 0
-380 -425 0
-166 -371 0
-167 -372 0
-168 -373 0
-169 -374 0
-170 -375 0
-261 -451 0
-262 -452 0
-263 -453 0
-264 -454 0
-265 -455 0
-46 -71 0
-47 -72 0
-48 -73 0
-49 -74 0
-50 -75 0
-76 -381 0
-77 -382 0
-78 -383 0
-79 -384 0
-80 -385 0
-71 -266 0
-72 -267 0
-73 -268 0
-74 -269 0
-75 -270 0
-96 -286 0
-97 -287 0
-98 -288 0
-99 -289 0
-100 -290 0
-21 -111 0
-22 -112 0
-23 -113 0
-24 -114 0
-25 -115 0
-276 -361 0
-277 -362 0
-278 -363 0
-279 -364 0
-280 -365 0
-256 -411 0
-257 -412 0
-258 -413 0
-259 -414 0
-260 -415 0
-106 -316 0
-107 -317 0
-108 -318 0
-109 -319 0
-110 -320 0
-411 -441 0
-412 -442 0
-413 -443 0
-414 -444 0
-415 -445 0
-286 -466 0
-287 -467 0
-288 -468 0
-289 -469 0
-290 -470 0
-21 -101 0
-22 -102 0
-23 -103 0
-24 -104 0
-25 -105 0
-171 -496 0
-172 -497 0
-173 -498 0
-174 -499 0
-175 -500 0
-76 -186 0
-77 -187 0
-78 -188 0
-79 -189 0
-80 -190 0
-96 -206 0
-97 -207 0
-98 -208 0
-99 -209 0
-100 -210 0
-161 -476 0
-162 -477 0
-163 -478 0
-164 -479 0
-165 -480 0
-136 -321 0
-137 -322 0
-138 -323 0
-139 -324 0
-140 -325 0
-181 -306 0
-182 -307 0
-183 -308 0
-184 -309 0
-185 -310 0
-121 -221 0
-122 -222 0
-123 -223 0
-124 -224 0
-125 -225 0
-241 -421 0
-242 -422 0
-243 -423 0
-244 -424 0
-245 -425 0
-76 -361 0
-77 -362 0
-78 -363 0
-79 -364 0
-80 -365 0
-106 -441 0
-107 -442 0
-108 -443 0
-109 -444 0
-110 -445 0
-211 -316 0
-212 -317 0
-213 -318 0
-214 -319 0
-215 -320 0
-371 -476 0
-372 -477 0
-373 -478 0
-374 -479 0
-375 -480 0
-211 -381 0
-212 -382 0
-213 -383 0
-214 -384 0
-215 -385 0
-246 -446 0
-247 -447 0
-248 -448 0
-249 -449 0
-250 -450 0
-46 -206 0
-47 -207 0
-48 -208 0
-49 -209 0
-50 -210 0
-251 -281 0
-252 -282 0
-253 -283 0
-254 -284 0
-255 -285 0
-181 -396 0
-182 -397 0
-183 -398 0
-184 -399 0
-185 -400 0
-31 -181 0
-32 -182 0
-33 -183 0
-34 -184 0
-35 -185 0
-206 -456 0
-207 -457 0
-208 -458 0
-209 -459 0
-210 -460 0
-326 -386 0
-327 -387 0
-328 -388 0
-329 -389 0
-330 -390 0
-426 -466 0
-427 -467 0
-428 -468 0
-429 -469 0
-430 -470 0
-81 -166 0
-82 -167 0
-83 -168 0
-84 -169 0
-85 -170 0
-161 -201 0
-162 -202 0
-163 -203 0
-164 -204 0
-165 -205 0
-406 -476 0
-407 -477 0
-408 -478 0
-409 -479 0
-410 -480 0
-271 -356 0
-272 -357 0
-273 -358 0
-274 -359 0
-275 -360 0
-11 -171 0
-12 -172 0
-13 -173 0
-14 -174 0
-15 -175 0
-151 -331 0
-152 -332 0
-153 -333 0
-154 -334 0
-155 -335 0
-411 -451 0
-412 -452 0
-413 -453 0
-414 -454 0
-415 -455 0
